3	25
551	444	101	477	416	895	854	703	863	182	120	90	332	195	555	658	836	996	424	354	183	32	690	275	148	
642	647	138	822	998	425	91	51	65	234	458	628	960	96	236	193	71	994	255	990	716	569	453	602	572	
993	993	993	
